NAME : rnd29_20.tsp
TYPE : TSP
DIMENSION : 20
EDGE_WEIGHT_TYPE : EUC_2D
NODE_COORD_SECTION
0 633 73
1 398 667
2 730 181
3 800 201
4 185 221
5 675 475
6 423 808
7 671 481
8 140 538
9 652 563
10 421 976
11 625 580
12 216 217
13 81 799
14 462 329
15 36 326
16 943 817
17 153 87
18 725 280
19 585 959
